
Gurobi 11.0.0 (linux64) logging started Fri Apr 12 22:43:46 2024

Set parameter LogFile to value "/lustre1/scratch/348/vsc34888/JointResearch/05.Models/06.Benchmarking/L.Cont_Investments_per_hour/9n_ByStages_nc60/openStarNet_9n_ByStages_nc60.log"
Set parameter Method to value 2
Set parameter MIPFocus to value 1
Set parameter Presolve to value 2
Set parameter RINS to value 100
Set parameter MIPGap to value 0.01
Set parameter Threads to value 36
Set parameter TimeLimit to value 259200
Set parameter IterationLimit to value 760000000
Gurobi Optimizer version 11.0.0 build v11.0.0rc2 (linux64 - "Rocky Linux 8.8 (Green Obsidian)")

CPU model: Intel(R) Xeon(R) Gold 6140 CPU @ 2.30GHz, instruction set [SSE2|AVX|AVX2|AVX512]
Thread count: 36 physical cores, 36 logical processors, using up to 36 threads

Optimize a model with 15723 rows, 8269 columns and 47275 nonzeros
Model fingerprint: 0x72ceabb7
Variable types: 8233 continuous, 36 integer (36 binary)
Coefficient statistics:
  Matrix range     [8e-04, 2e+03]
  Objective range  [1e+00, 1e+00]
  Bounds range     [8e-04, 2e+00]
  RHS range        [8e-04, 1e+00]
Presolve removed 5343 rows and 2824 columns
Presolve time: 0.08s
Presolved: 10380 rows, 5445 columns, 35409 nonzeros
Variable types: 5409 continuous, 36 integer (36 binary)
Found heuristic solution: objective 855.7354641
Root relaxation presolved: 10380 rows, 5445 columns, 35409 nonzeros

Root barrier log...

Ordering time: 0.01s

Barrier statistics:
 Dense cols : 36
 AA' NZ     : 1.229e+05
 Factor NZ  : 2.433e+05 (roughly 8 MB of memory)
 Factor Ops : 8.104e+06 (less than 1 second per iteration)
 Threads    : 36

                  Objective                Residual
Iter       Primal          Dual         Primal    Dual     Compl     Time
   0   4.79884224e+05 -4.15116764e+07  7.27e+00 3.31e+02  8.00e+03     0s
   1   7.81520810e+04 -1.69131312e+07  1.02e+00 1.25e-09  1.24e+03     0s
   2   1.59057712e+04 -3.45157461e+06  2.95e-02 1.15e-09  1.75e+02     0s
   3   6.53910511e+03 -7.22118117e+04  3.64e-14 4.19e-11  3.89e+00     0s
   4   1.59357373e+03 -1.63423396e+04  4.44e-14 9.64e-12  8.86e-01     0s
   5   7.28048424e+02 -5.27449098e+03  4.17e-14 3.73e-12  2.96e-01     0s
   6   5.31959619e+02 -1.63536546e+03  3.91e-14 9.09e-13  1.07e-01     0s
   7   3.52548696e+02 -4.83723436e+02  2.31e-14 9.09e-13  4.13e-02     0s
   8   1.62982312e+02 -1.12960616e+02  4.54e-13 9.09e-13  1.36e-02     0s
   9   1.08327914e+02  6.19921533e+01  4.38e-13 9.09e-13  2.29e-03     0s
  10   9.95542616e+01  7.43124344e+01  3.81e-12 9.09e-13  1.25e-03     0s
  11   9.49651988e+01  7.93277267e+01  2.03e-12 9.09e-13  7.72e-04     0s
  12   9.30221748e+01  8.38902446e+01  2.38e-12 9.09e-13  4.51e-04     0s
  13   9.15845379e+01  8.51187588e+01  5.41e-12 1.36e-12  3.19e-04     0s
  14   9.01115899e+01  8.86440815e+01  5.37e-12 1.82e-12  7.25e-05     1s
  15   8.98162241e+01  8.93308340e+01  7.06e-12 9.09e-13  2.40e-05     1s
  16   8.97150118e+01  8.96818919e+01  1.44e-11 1.82e-12  1.64e-06     1s
  17   8.97074068e+01  8.97048752e+01  2.31e-11 9.09e-13  1.25e-07     1s
  18   8.97055314e+01  8.97051463e+01  3.15e-09 1.82e-12  1.90e-08     1s
  19   8.97052065e+01  8.97052053e+01  1.59e-09 1.82e-12  5.83e-11     1s
  20   8.97052061e+01  8.97052061e+01  3.73e-09 1.36e-12  6.32e-14     1s

Barrier solved model in 20 iterations and 0.64 seconds (0.27 work units)
Optimal objective 8.97052061e+01


Root relaxation: objective 8.970521e+01, 726 iterations, 0.58 seconds (0.13 work units)

    Nodes    |    Current Node    |     Objective Bounds      |     Work
 Expl Unexpl |  Obj  Depth IntInf | Incumbent    BestBd   Gap | It/Node Time

     0     0   89.70521    0    4  855.73546   89.70521  89.5%     -    0s
H    0     0                     708.3327915   89.70521  87.3%     -    1s
     0     0   97.14428    0    1  708.33279   97.14428  86.3%     -    1s
H    0     0                      98.2654490   97.14428  1.14%     -    1s
     0     0   97.14428    0    1   98.26545   97.14428  1.14%     -    1s
     0     0   97.20246    0    3   98.26545   97.20246  1.08%     -    1s
     0     0   97.20246    0    2   98.26545   97.20246  1.08%     -    1s

Cutting planes:
  MIR: 41

Explored 1 nodes (1193 simplex iterations) in 1.95 seconds (0.51 work units)
Thread count was 36 (of 36 available processors)

Solution count 3: 98.2654 708.333 855.735 

Optimal solution found (tolerance 1.00e-02)
Best objective 9.826544904172e+01, best bound 9.826544904172e+01, gap 0.0000%

Gurobi 11.0.0 (linux64) logging started Fri Apr 12 22:43:50 2024

Set parameter LogFile to value "/lustre1/scratch/348/vsc34888/JointResearch/05.Models/06.Benchmarking/L.Cont_Investments_per_hour/9n_ByStages_nc60/openStarNet_9n_ByStages_nc60.log"
Set parameter Method to value 2
Set parameter MIPFocus to value 1
Set parameter Presolve to value 2
Set parameter RINS to value 100
Set parameter MIPGap to value 0.01
Set parameter Threads to value 36
Set parameter TimeLimit to value 259200
Set parameter IterationLimit to value 760000000
Gurobi Optimizer version 11.0.0 build v11.0.0rc2 (linux64 - "Rocky Linux 8.8 (Green Obsidian)")

CPU model: Intel(R) Xeon(R) Gold 6140 CPU @ 2.30GHz, instruction set [SSE2|AVX|AVX2|AVX512]
Thread count: 36 physical cores, 36 logical processors, using up to 36 threads

Optimize a model with 15723 rows, 8233 columns and 38599 nonzeros
Model fingerprint: 0xf0eccfc8
Coefficient statistics:
  Matrix range     [8e-04, 2e+03]
  Objective range  [1e+00, 1e+00]
  Bounds range     [8e-04, 2e+00]
  RHS range        [8e-04, 2e+01]
Presolve removed 14373 rows and 5501 columns
Presolve time: 0.02s
Presolved: 1350 rows, 2732 columns, 5852 nonzeros

Ordering time: 0.00s

Barrier statistics:
 AA' NZ     : 2.647e+03
 Factor NZ  : 1.214e+04 (roughly 2 MB of memory)
 Factor Ops : 1.408e+05 (less than 1 second per iteration)
 Threads    : 1

                  Objective                Residual
Iter       Primal          Dual         Primal    Dual     Compl     Time
   0   5.63590291e+05 -1.96167810e+07  6.26e+00 1.56e+03  1.92e+04     0s
   1   6.67684735e+04 -1.16751634e+07  5.30e-01 1.80e-11  2.81e+03     0s
   2   2.59030962e+04 -2.64827984e+06  9.46e-02 1.91e-11  4.98e+02     0s
   3   1.15977096e+04 -1.26005759e+05  4.98e-14 1.23e-11  2.20e+01     0s
   4   2.47045233e+03 -1.09952437e+04  4.87e-14 6.37e-12  2.15e+00     0s
   5   8.65311357e+02 -3.52124184e+03  2.25e-14 3.64e-12  7.02e-01     0s
   6   4.96487769e+02 -8.38198835e+02  1.35e-14 3.64e-12  2.14e-01     0s
   7   2.28434129e+02 -2.41204301e+02  9.30e-14 3.64e-12  7.51e-02     0s
   8   1.67406261e+02 -2.16590385e+01  5.05e-14 1.82e-12  3.02e-02     0s
   9   1.22260328e+02  5.98992938e+01  8.04e-14 3.64e-12  9.98e-03     0s
  10   1.05828289e+02  9.10421019e+01  1.31e-13 3.64e-12  2.37e-03     0s
  11   1.00833146e+02  9.58336903e+01  6.25e-14 3.64e-12  8.00e-04     0s
  12   9.94057200e+01  9.72560628e+01  1.57e-13 3.64e-12  3.44e-04     0s
  13   9.88052523e+01  9.78346635e+01  2.16e-13 3.64e-12  1.55e-04     0s
  14   9.84950260e+01  9.81041782e+01  1.44e-13 1.82e-12  6.25e-05     0s
  15   9.83302503e+01  9.82206010e+01  2.28e-13 1.82e-12  1.75e-05     0s
  16   9.82726981e+01  9.82553467e+01  1.09e-13 3.64e-12  2.78e-06     0s
  17   9.82661616e+01  9.82652936e+01  2.24e-12 3.64e-12  1.39e-07     0s
  18   9.82654861e+01  9.82654272e+01  3.13e-10 3.64e-12  9.42e-09     0s
  19   9.82654491e+01  9.82654488e+01  4.47e-11 1.82e-12  4.43e-11     0s

Barrier solved model in 19 iterations and 0.04 seconds (0.03 work units)
Optimal objective 9.82654491e+01

Crossover log...

     671 DPushes remaining with DInf 0.0000000e+00                 0s
       0 DPushes remaining with DInf 0.0000000e+00                 0s

       6 PPushes remaining with PInf 0.0000000e+00                 0s
       0 PPushes remaining with PInf 0.0000000e+00                 0s

  Push phase complete: Pinf 0.0000000e+00, Dinf 8.3818477e-14      0s

Iteration    Objective       Primal Inf.    Dual Inf.      Time
      67    9.8265449e+01   0.000000e+00   0.000000e+00      0s

Solved in 67 iterations and 0.05 seconds (0.04 work units)
Optimal objective  9.826544904e+01
